<instance format="XCSP3" type="COP">
  <variables>
    <array id="x" size="[52]"> 0..51 </array>
  </variables>
  <constraints>
    <group>
      <intension> ne(%0,%1) </intension>
      <args> x[0] x[1] </args>
      <args> x[0] x[3] </args>
      <args> x[0] x[13] </args>
      <args> x[0] x[15] </args>
      <args> x[1] x[2] </args>
      <args> x[1] x[12] </args>
      <args> x[1] x[14] </args>
      <args> x[2] x[5] </args>
      <args> x[2] x[9] </args>
      <args> x[2] x[13] </args>
      <args> x[2] x[17] </args>
      <args> x[2] x[21] </args>
      <args> x[3] x[4] </args>
      <args> x[3] x[9] </args>
      <args> x[3] x[12] </args>
      <args> x[3] x[16] </args>
      <args> x[3] x[21] </args>
      <args> x[4] x[7] </args>
      <args> x[4] x[10] </args>
      <args> x[4] x[15] </args>
      <args> x[4] x[19] </args>
      <args> x[4] x[22] </args>
      <args> x[5] x[6] </args>
      <args> x[5] x[10] </args>
      <args> x[5] x[14] </args>
      <args> x[5] x[18] </args>
      <args> x[5] x[22] </args>
      <args> x[6] x[8] </args>
      <args> x[6] x[11] </args>
      <args> x[6] x[17] </args>
      <args> x[6] x[20] </args>
      <args> x[6] x[23] </args>
      <args> x[7] x[8] </args>
      <args> x[7] x[11] </args>
      <args> x[7] x[16] </args>
      <args> x[7] x[20] </args>
      <args> x[7] x[23] </args>
      <args> x[8] x[9] </args>
      <args> x[8] x[10] </args>
      <args> x[8] x[11] </args>
      <args> x[8] x[18] </args>
      <args> x[8] x[19] </args>
      <args> x[8] x[21] </args>
      <args> x[8] x[22] </args>
      <args> x[8] x[23] </args>
      <args> x[9] x[10] </args>
      <args> x[9] x[11] </args>
      <args> x[9] x[14] </args>
      <args> x[9] x[15] </args>
      <args> x[9] x[20] </args>
      <args> x[9] x[22] </args>
      <args> x[9] x[23] </args>
      <args> x[10] x[11] </args>
      <args> x[10] x[16] </args>
      <args> x[10] x[17] </args>
      <args> x[10] x[20] </args>
      <args> x[10] x[21] </args>
      <args> x[10] x[23] </args>
      <args> x[11] x[18] </args>
      <args> x[11] x[19] </args>
      <args> x[11] x[20] </args>
      <args> x[11] x[21] </args>
      <args> x[11] x[22] </args>
      <args> x[12] x[25] </args>
      <args> x[12] x[27] </args>
      <args> x[12] x[49] </args>
      <args> x[13] x[24] </args>
      <args> x[13] x[26] </args>
      <args> x[13] x[49] </args>
      <args> x[14] x[25] </args>
      <args> x[14] x[29] </args>
      <args> x[14] x[33] </args>
      <args> x[14] x[49] </args>
      <args> x[15] x[24] </args>
      <args> x[15] x[28] </args>
      <args> x[15] x[33] </args>
      <args> x[15] x[49] </args>
      <args> x[16] x[27] </args>
      <args> x[16] x[31] </args>
      <args> x[16] x[34] </args>
      <args> x[16] x[49] </args>
      <args> x[17] x[26] </args>
      <args> x[17] x[30] </args>
      <args> x[17] x[34] </args>
      <args> x[17] x[49] </args>
      <args> x[18] x[29] </args>
      <args> x[18] x[32] </args>
      <args> x[18] x[35] </args>
      <args> x[18] x[49] </args>
      <args> x[19] x[28] </args>
      <args> x[19] x[32] </args>
      <args> x[19] x[35] </args>
      <args> x[19] x[49] </args>
      <args> x[20] x[30] </args>
      <args> x[20] x[31] </args>
      <args> x[20] x[33] </args>
      <args> x[20] x[34] </args>
      <args> x[20] x[35] </args>
      <args> x[20] x[49] </args>
      <args> x[21] x[26] </args>
      <args> x[21] x[27] </args>
      <args> x[21] x[32] </args>
      <args> x[21] x[34] </args>
      <args> x[21] x[35] </args>
      <args> x[21] x[49] </args>
      <args> x[22] x[28] </args>
      <args> x[22] x[29] </args>
      <args> x[22] x[32] </args>
      <args> x[22] x[33] </args>
      <args> x[22] x[35] </args>
      <args> x[22] x[49] </args>
      <args> x[23] x[30] </args>
      <args> x[23] x[31] </args>
      <args> x[23] x[32] </args>
      <args> x[23] x[33] </args>
      <args> x[23] x[34] </args>
      <args> x[23] x[49] </args>
      <args> x[24] x[37] </args>
      <args> x[24] x[39] </args>
      <args> x[24] x[50] </args>
      <args> x[25] x[36] </args>
      <args> x[25] x[38] </args>
      <args> x[25] x[50] </args>
      <args> x[26] x[37] </args>
      <args> x[26] x[41] </args>
      <args> x[26] x[45] </args>
      <args> x[26] x[50] </args>
      <args> x[27] x[36] </args>
      <args> x[27] x[40] </args>
      <args> x[27] x[45] </args>
      <args> x[27] x[50] </args>
      <args> x[28] x[39] </args>
      <args> x[28] x[43] </args>
      <args> x[28] x[46] </args>
      <args> x[28] x[50] </args>
      <args> x[29] x[38] </args>
      <args> x[29] x[42] </args>
      <args> x[29] x[46] </args>
      <args> x[29] x[50] </args>
      <args> x[30] x[41] </args>
      <args> x[30] x[44] </args>
      <args> x[30] x[47] </args>
      <args> x[30] x[50] </args>
      <args> x[31] x[40] </args>
      <args> x[31] x[44] </args>
      <args> x[31] x[47] </args>
      <args> x[31] x[50] </args>
      <args> x[32] x[42] </args>
      <args> x[32] x[43] </args>
      <args> x[32] x[45] </args>
      <args> x[32] x[46] </args>
      <args> x[32] x[47] </args>
      <args> x[32] x[50] </args>
      <args> x[33] x[38] </args>
      <args> x[33] x[39] </args>
      <args> x[33] x[44] </args>
      <args> x[33] x[46] </args>
      <args> x[33] x[47] </args>
      <args> x[33] x[50] </args>
      <args> x[34] x[40] </args>
      <args> x[34] x[41] </args>
      <args> x[34] x[44] </args>
      <args> x[34] x[45] </args>
      <args> x[34] x[47] </args>
      <args> x[34] x[50] </args>
      <args> x[35] x[42] </args>
      <args> x[35] x[43] </args>
      <args> x[35] x[44] </args>
      <args> x[35] x[45] </args>
      <args> x[35] x[46] </args>
      <args> x[35] x[50] </args>
      <args> x[36] x[48] </args>
      <args> x[36] x[51] </args>
      <args> x[37] x[48] </args>
      <args> x[37] x[51] </args>
      <args> x[38] x[48] </args>
      <args> x[38] x[51] </args>
      <args> x[39] x[48] </args>
      <args> x[39] x[51] </args>
      <args> x[40] x[48] </args>
      <args> x[40] x[51] </args>
      <args> x[41] x[48] </args>
      <args> x[41] x[51] </args>
      <args> x[42] x[48] </args>
      <args> x[42] x[51] </args>
      <args> x[43] x[48] </args>
      <args> x[43] x[51] </args>
      <args> x[44] x[48] </args>
      <args> x[44] x[51] </args>
      <args> x[45] x[48] </args>
      <args> x[45] x[51] </args>
      <args> x[46] x[48] </args>
      <args> x[46] x[51] </args>
      <args> x[47] x[48] </args>
      <args> x[47] x[51] </args>
      <args> x[48] x[49] </args>
      <args> x[48] x[50] </args>
      <args> x[48] x[51] </args>
      <args> x[49] x[50] </args>
      <args> x[49] x[51] </args>
      <args> x[50] x[51] </args>
    </group>
  </constraints>
  <objectives>
    <minimize type="maximum"> x[] </minimize>
  </objectives>
</instance>
